Si dia                                  
   5.50000000000000     
     0.0000000000000000    0.4968702527137844    0.4968702527137844
     0.4968702527137844    0.0000000000000000    0.4968702527137844
     0.4968702527137844    0.4968702527137844   -0.0000000000000000
   Si
     2
Direct
  0.8750000000000000  0.8750000000000000  0.8750000000000000
  0.1250000000000000  0.1250000000000000  0.1250000000000000
 
  0.00000000E+00  0.00000000E+00  0.00000000E+00
  0.00000000E+00  0.00000000E+00  0.00000000E+00
