SYSTEM = diamond Si

LPLANE = .FALSE.
NPAR = 5
NSIM = 4 

ISTART = 0 
ICHARG = 2
INIWAVE = 1

ENCUT = 240
NELM = 60
NELMIN = 0
NELMDL = 3
EDIFF = 1e-4
PREC = Accurate

EDIFFG = -0.01
IBRION = 2
ISIF = 3
POTIM = 1.0
NSW = 9
ISMEAR = 0
SIGMA = 0.1
